Minimize
+ 2 x_0 + 4 x_1 + 5 x_2 + 4 x_3 + 2 x_4 
+ 4 x_5 + 3 x_6 + 5 x_7 + 5 x_8 + 2 x_9 
+ 4 x_10 + 2 x_11 + 5 x_12 + 5 x_13 + 4 x_14 
+ 1 x_15 + 1 x_16 + 1 x_17 + 1 x_18 + 1 x_19 
+ 1 x_20 + 1 x_21 + 1 x_22 + 1 x_23 + 1 x_24 
+ 1 x_25 + 1 x_26 + 1 x_27 + 1 x_28 + 1 x_29 
+ 189 x_30 + 120 x_31 + 191 x_32 + 143 x_33 + 154 x_34 
+ 168 x_35 + 116 x_36 + 147 x_37 + 158 x_38 + 161 x_39 
+ 121 x_40 + 150 x_41 + 164 x_42 + 190 x_43 + 192 x_44 
subject to
constr_0: + x_0 - x_15 = 22
constr_1: + x_1 + x_15 - x_16 = 29
constr_2: + x_2 + x_16 - x_17 = 29
constr_3: + x_3 + x_17 - x_18 = 29
constr_4: + x_4 + x_18 - x_19 = 23
constr_5: + x_5 - x_20 = 30
constr_6: + x_6 + x_20 - x_21 = 20
constr_7: + x_7 + x_21 - x_22 = 28
constr_8: + x_8 + x_22 - x_23 = 22
constr_9: + x_9 + x_23 - x_24 = 23
constr_10: + x_10 - x_25 = 28
constr_11: + x_11 + x_25 - x_26 = 30
constr_12: + x_12 + x_26 - x_27 = 23
constr_13: + x_13 + x_27 - x_28 = 21
constr_14: + x_14 + x_28 - x_29 = 17
constr_15: + x_15 + x_20 + x_25 <= 90
constr_16: + x_16 + x_21 + x_26 <= 90
constr_17: + x_17 + x_22 + x_27 <= 90
constr_18: + x_18 + x_23 + x_28 <= 90
constr_19: + x_19 + x_24 + x_29 <= 90
constr_20: + x_0 - 70 x_30 <= 0
constr_21: + x_1 - 70 x_31 <= 0
constr_22: + x_2 - 70 x_32 <= 0
constr_23: + x_3 - 70 x_33 <= 0
constr_24: + x_4 - 70 x_34 <= 0
constr_25: + x_5 - 70 x_35 <= 0
constr_26: + x_6 - 70 x_36 <= 0
constr_27: + x_7 - 70 x_37 <= 0
constr_28: + x_8 - 70 x_38 <= 0
constr_29: + x_9 - 70 x_39 <= 0
constr_30: + x_10 - 70 x_40 <= 0
constr_31: + x_11 - 70 x_41 <= 0
constr_32: + x_12 - 70 x_42 <= 0
constr_33: + x_13 - 70 x_43 <= 0
constr_34: + x_14 - 70 x_44 <= 0
constr_35: + 1 x_0 + 0 x_30 + 1 x_5 + 0 x_35 + 1 x_10 + 0 x_40 <= 80
constr_36: + 1 x_1 + 0 x_31 + 1 x_6 + 0 x_36 + 1 x_11 + 0 x_41 <= 80
constr_37: + 1 x_2 + 0 x_32 + 1 x_7 + 0 x_37 + 1 x_12 + 0 x_42 <= 80
constr_38: + 1 x_3 + 0 x_33 + 1 x_8 + 0 x_38 + 1 x_13 + 0 x_43 <= 80
constr_39: + 1 x_4 + 0 x_34 + 1 x_9 + 0 x_39 + 1 x_14 + 0 x_44 <= 80
Binaries
x_30
x_31
x_32
x_33
x_34
x_35
x_36
x_37
x_38
x_39
x_40
x_41
x_42
x_43
x_44
End
